************************************************************************
file with basedata            : mm23_.bas
initial value random generator: 533753759
************************************************************************
projects                      :  1
jobs (incl. supersource/sink ):  12
horizon                       :  84
RESOURCES
  - renewable                 :  2   R
  - nonrenewable              :  2   N
  - doubly constrained        :  0   D
************************************************************************
PROJECT INFORMATION:
pronr.  #jobs rel.date duedate tardcost  MPM-Time
    1     10      0       16        0       16
************************************************************************
PRECEDENCE RELATIONS:
jobnr.    #modes  #successors   successors
   0        1          3           1   2   3
   1        3          2           5   9
   2        3          2           9  10
   3        3          3           4   7   9
   4        3          2           5  10
   5        3          1           6
   6        3          1           8
   7        3          1           8
   8        3          1          11
   9        3          1          11
  10        3          1          11
  11        1          0        
************************************************************************
REQUESTS/DURATIONS:
jobnr. mode duration  R 1  R 2  R 3  R 4  E(W 1)  E(W 2)
------------------------------------------------------------------------
  0      1     0       0    0    0    0     0       0
  1      1     1       6    0    9    7     6      16
  2      1     1       0    5    5    7     5      12
  3      1     4       0    8    6    9    32      60
  4      1     2       0    5    8    5    10      26
  5      1     6       0    3    6    7    18      78
  6      1     3       0    5    7    8    15      45
  7      1     7       0    3    1    7    21      63
  8      1     1       3    0    7    8     3      15
  9      1     7       2    0    9    8    14      119
 10      1     3       5    0    6    9    15      45
 11      1     0       0    0    0    0     0       0
************************************************************************
RESOURCEAVAILABILITIES:
  R 1  R 2
   26   125
************************************************************************
RESOURCE LIMITS:
jobnr.  l(R 1)  u(R 1)  l(R 2)  u(R 2)
------------------------------------------------------------------------
  0        0       0       0       0
  1        3       6       9      16
  2        3       5       7      12
  3        4       8       8      15
  4        3       5       7      13
  5        2       3       7      13
  6        3       5       8      15
  7        2       3       5       9
  8        2       3       8      15
  9        1       2       9      17
 10        3       5       8      15
 11        0       0       0       0
************************************************************************
SCENARIOS:
------------------------------------------------------------------------
RESOURCE k = 1
s = 1: (0, 11, 4, 28, 9, 26, 13, 22, 3, 19, 12, 0)
s = 2: (0, 6, 4, 46, 15, 23, 19, 20, 5, 11, 16, 0)
s = 3: (0, 10, 6, 25, 9, 12, 14, 36, 3, 15, 10, 0)
s = 4: (0, 6, 4, 34, 10, 12, 18, 18, 4, 16, 17, 0)
s = 5: (0, 6, 9, 24, 9, 15, 14, 16, 4, 19, 21, 0)
s = 6: (0, 9, 6, 23, 15, 14, 17, 23, 4, 13, 25, 0)
s = 7: (0, 4, 9, 37, 8, 16, 14, 22, 4, 10, 10, 0)
s = 8: (0, 8, 7, 25, 15, 20, 18, 24, 3, 18, 20, 0)
s = 9: (0, 6, 9, 34, 8, 26, 15, 27, 3, 12, 9, 0)
s = 10: (0, 5, 5, 44, 16, 19, 11, 27, 3, 21, 22, 0)
s = 11: (0, 6, 4, 27, 7, 18, 24, 28, 3, 9, 10, 0)
s = 12: (0, 5, 6, 40, 8, 16, 13, 17, 3, 17, 15, 0)
s = 13: (0, 5, 4, 23, 8, 19, 13, 14, 4, 9, 16, 0)
s = 14: (0, 8, 4, 40, 9, 22, 10, 30, 4, 9, 11, 0)
s = 15: (0, 5, 5, 36, 9, 19, 19, 29, 4, 10, 21, 0)
s = 16: (0, 6, 6, 24, 8, 15, 17, 30, 3, 13, 26, 0)
s = 17: (0, 4, 6, 21, 9, 23, 14, 15, 4, 15, 12, 0)
s = 18: (0, 5, 7, 41, 9, 20, 12, 32, 4, 10, 19, 0)
s = 19: (0, 6, 4, 34, 8, 17, 24, 18, 3, 18, 11, 0)
s = 20: (0, 7, 7, 29, 11, 22, 16, 20, 3, 17, 21, 0)
s = 21: (0, 6, 5, 32, 12, 23, 20, 14, 2, 13, 15, 0)
s = 22: (0, 7, 3, 41, 17, 17, 15, 16, 2, 12, 13, 0)
s = 23: (0, 8, 4, 37, 13, 18, 25, 31, 4, 11, 25, 0)
s = 24: (0, 6, 6, 27, 11, 14, 21, 18, 3, 12, 13, 0)
s = 25: (0, 5, 7, 18, 6, 30, 12, 19, 3, 18, 17, 0)
s = 26: (0, 8, 5, 35, 8, 23, 15, 16, 2, 20, 13, 0)
s = 27: (0, 7, 7, 35, 13, 12, 9, 24, 3, 10, 10, 0)
s = 28: (0, 8, 4, 38, 12, 26, 9, 20, 3, 22, 13, 0)
s = 29: (0, 7, 5, 23, 7, 22, 18, 25, 2, 11, 13, 0)
s = 30: (0, 11, 7, 29, 11, 19, 16, 12, 3, 13, 13, 0)
s = 31: (0, 6, 7, 29, 10, 24, 24, 22, 3, 19, 20, 0)
s = 32: (0, 4, 4, 49, 11, 22, 16, 17, 4, 20, 17, 0)
s = 33: (0, 7, 6, 24, 10, 21, 11, 31, 4, 21, 10, 0)
s = 34: (0, 7, 7, 28, 10, 22, 17, 18, 3, 9, 24, 0)
s = 35: (0, 4, 5, 33, 10, 12, 18, 20, 3, 13, 19, 0)
s = 36: (0, 6, 7, 59, 10, 20, 15, 16, 4, 18, 14, 0)
s = 37: (0, 6, 6, 59, 10, 20, 19, 22, 4, 22, 15, 0)
s = 38: (0, 8, 6, 37, 9, 19, 9, 13, 3, 12, 12, 0)
s = 39: (0, 7, 4, 48, 13, 19, 18, 12, 4, 24, 12, 0)
s = 40: (0, 8, 6, 28, 19, 18, 17, 32, 3, 12, 19, 0)
s = 41: (0, 5, 7, 26, 17, 27, 18, 17, 4, 15, 18, 0)
s = 42: (0, 6, 6, 19, 14, 14, 13, 15, 3, 18, 18, 0)
s = 43: (0, 7, 5, 24, 13, 25, 13, 34, 4, 19, 18, 0)
s = 44: (0, 9, 11, 33, 7, 17, 16, 26, 3, 12, 23, 0)
s = 45: (0, 5, 4, 35, 11, 12, 22, 26, 4, 15, 10, 0)
s = 46: (0, 5, 7, 39, 11, 10, 11, 28, 3, 13, 14, 0)
s = 47: (0, 5, 5, 27, 9, 19, 11, 17, 4, 20, 26, 0)
s = 48: (0, 7, 4, 27, 15, 15, 17, 26, 3, 10, 15, 0)
s = 49: (0, 6, 6, 39, 11, 23, 17, 25, 3, 10, 14, 0)
s = 50: (0, 4, 6, 37, 13, 16, 12, 35, 4, 11, 11, 0)
s = 51: (0, 7, 3, 31, 8, 23, 19, 13, 4, 11, 15, 0)
s = 52: (0, 9, 6, 36, 8, 22, 20, 26, 5, 17, 18, 0)
s = 53: (0, 5, 5, 29, 10, 20, 13, 28, 3, 9, 19, 0)
s = 54: (0, 5, 6, 40, 10, 14, 11, 30, 4, 14, 16, 0)
s = 55: (0, 5, 6, 24, 9, 24, 15, 28, 2, 19, 12, 0)
s = 56: (0, 7, 4, 28, 17, 14, 13, 27, 5, 21, 17, 0)
s = 57: (0, 8, 8, 26, 15, 26, 23, 15, 4, 10, 18, 0)
s = 58: (0, 5, 5, 54, 7, 17, 19, 30, 4, 23, 11, 0)
s = 59: (0, 4, 5, 22, 11, 17, 16, 24, 4, 14, 11, 0)
s = 60: (0, 4, 7, 29, 11, 10, 13, 21, 4, 14, 24, 0)
s = 61: (0, 7, 5, 33, 8, 20, 15, 23, 3, 16, 10, 0)
s = 62: (0, 7, 5, 25, 9, 17, 13, 16, 3, 13, 29, 0)
s = 63: (0, 6, 6, 22, 12, 21, 16, 28, 3, 9, 10, 0)
s = 64: (0, 6, 4, 34, 8, 14, 12, 28, 3, 12, 10, 0)
s = 65: (0, 7, 6, 32, 10, 17, 18, 17, 2, 16, 11, 0)
s = 66: (0, 9, 5, 28, 10, 15, 19, 20, 4, 13, 17, 0)
s = 67: (0, 5, 5, 51, 11, 13, 15, 19, 4, 12, 13, 0)
s = 68: (0, 8, 7, 33, 13, 20, 11, 15, 3, 18, 9, 0)
s = 69: (0, 6, 6, 33, 13, 14, 18, 21, 3, 8, 16, 0)
s = 70: (0, 6, 7, 26, 14, 28, 25, 16, 3, 18, 16, 0)
s = 71: (0, 4, 4, 29, 8, 16, 21, 22, 3, 18, 11, 0)
s = 72: (0, 5, 8, 30, 6, 27, 17, 18, 3, 15, 19, 0)
s = 73: (0, 6, 5, 41, 11, 24, 11, 21, 3, 18, 15, 0)
s = 74: (0, 6, 4, 31, 7, 26, 9, 31, 4, 19, 14, 0)
s = 75: (0, 6, 4, 37, 14, 12, 18, 17, 5, 22, 10, 0)
s = 76: (0, 6, 5, 28, 12, 16, 19, 20, 4, 16, 18, 0)
s = 77: (0, 5, 7, 36, 7, 22, 13, 18, 3, 13, 13, 0)
s = 78: (0, 5, 6, 32, 11, 18, 21, 20, 3, 14, 15, 0)
s = 79: (0, 8, 4, 24, 7, 18, 13, 25, 3, 13, 19, 0)
s = 80: (0, 7, 5, 51, 6, 19, 11, 21, 3, 21, 14, 0)
s = 81: (0, 8, 4, 25, 12, 15, 15, 19, 4, 15, 15, 0)
s = 82: (0, 7, 3, 46, 10, 23, 15, 19, 3, 9, 15, 0)
s = 83: (0, 6, 4, 43, 13, 19, 21, 19, 4, 11, 11, 0)
s = 84: (0, 4, 7, 31, 10, 17, 17, 13, 3, 16, 13, 0)
s = 85: (0, 9, 6, 39, 8, 29, 10, 28, 5, 19, 18, 0)
s = 86: (0, 11, 7, 48, 13, 18, 11, 12, 4, 11, 17, 0)
s = 87: (0, 6, 5, 36, 9, 22, 14, 16, 6, 8, 9, 0)
s = 88: (0, 6, 7, 26, 13, 19, 10, 20, 3, 9, 12, 0)
s = 89: (0, 8, 4, 28, 13, 28, 19, 29, 3, 21, 16, 0)
s = 90: (0, 5, 4, 37, 10, 22, 11, 19, 6, 14, 10, 0)
s = 91: (0, 7, 4, 44, 13, 12, 18, 17, 3, 16, 25, 0)
s = 92: (0, 5, 4, 34, 19, 13, 18, 14, 3, 10, 14, 0)
s = 93: (0, 5, 5, 25, 6, 16, 11, 19, 4, 19, 16, 0)
s = 94: (0, 9, 7, 36, 9, 16, 12, 27, 4, 23, 15, 0)
s = 95: (0, 5, 5, 37, 7, 17, 12, 16, 3, 13, 20, 0)
s = 96: (0, 9, 6, 34, 9, 13, 15, 18, 3, 11, 10, 0)
s = 97: (0, 9, 4, 41, 11, 18, 12, 20, 3, 26, 19, 0)
s = 98: (0, 4, 6, 46, 10, 19, 19, 19, 3, 12, 12, 0)
s = 99: (0, 8, 10, 47, 14, 16, 15, 23, 3, 24, 15, 0)
s = 100: (0, 5, 3, 24, 12, 16, 17, 27, 3, 15, 19, 0)
s = 101: (0, 5, 7, 41, 13, 14, 16, 23, 4, 9, 11, 0)
s = 102: (0, 5, 4, 36, 13, 12, 16, 13, 3, 20, 10, 0)
s = 103: (0, 9, 4, 32, 7, 27, 18, 36, 4, 13, 18, 0)
s = 104: (0, 9, 5, 25, 9, 25, 12, 20, 3, 17, 14, 0)
s = 105: (0, 8, 4, 36, 6, 25, 18, 17, 3, 17, 22, 0)
s = 106: (0, 5, 4, 34, 12, 14, 22, 19, 4, 11, 11, 0)
s = 107: (0, 8, 8, 20, 6, 18, 9, 27, 4, 10, 14, 0)
s = 108: (0, 11, 6, 30, 9, 15, 16, 27, 3, 11, 20, 0)
s = 109: (0, 5, 5, 25, 9, 21, 14, 17, 4, 11, 10, 0)
s = 110: (0, 8, 6, 30, 9, 19, 14, 17, 3, 11, 28, 0)
s = 111: (0, 5, 7, 19, 8, 17, 15, 17, 3, 9, 13, 0)
s = 112: (0, 8, 5, 40, 10, 17, 13, 28, 3, 12, 15, 0)
s = 113: (0, 4, 4, 30, 11, 21, 24, 23, 5, 17, 9, 0)
s = 114: (0, 5, 5, 29, 9, 10, 16, 15, 4, 14, 17, 0)
s = 115: (0, 8, 8, 23, 7, 11, 22, 20, 4, 13, 24, 0)
s = 116: (0, 6, 7, 22, 14, 22, 12, 29, 2, 11, 19, 0)
s = 117: (0, 5, 7, 33, 14, 12, 12, 25, 3, 11, 16, 0)
s = 118: (0, 7, 6, 29, 11, 24, 27, 19, 3, 19, 13, 0)
s = 119: (0, 7, 5, 18, 6, 16, 8, 19, 3, 11, 19, 0)
s = 120: (0, 4, 5, 27, 8, 22, 15, 21, 3, 21, 16, 0)
s = 121: (0, 10, 5, 27, 13, 12, 25, 26, 4, 10, 13, 0)
s = 122: (0, 7, 6, 22, 6, 18, 17, 34, 5, 12, 17, 0)
s = 123: (0, 7, 3, 40, 8, 29, 19, 28, 3, 24, 11, 0)
s = 124: (0, 7, 5, 23, 13, 19, 19, 16, 3, 9, 21, 0)
s = 125: (0, 7, 4, 24, 8, 13, 19, 27, 4, 16, 21, 0)
s = 126: (0, 4, 7, 26, 15, 12, 13, 23, 3, 8, 18, 0)
s = 127: (0, 5, 10, 22, 13, 13, 14, 16, 3, 22, 13, 0)
s = 128: (0, 5, 7, 25, 8, 27, 18, 29, 3, 10, 13, 0)
s = 129: (0, 4, 4, 19, 9, 15, 15, 33, 4, 13, 19, 0)
s = 130: (0, 6, 6, 31, 9, 27, 16, 12, 4, 21, 22, 0)
s = 131: (0, 8, 5, 37, 9, 17, 11, 24, 3, 19, 12, 0)
s = 132: (0, 5, 5, 25, 8, 15, 24, 18, 3, 9, 10, 0)
s = 133: (0, 9, 6, 53, 8, 13, 10, 33, 4, 16, 13, 0)
s = 134: (0, 6, 7, 26, 13, 18, 9, 13, 4, 20, 20, 0)
s = 135: (0, 7, 8, 38, 9, 24, 9, 25, 5, 17, 17, 0)
s = 136: (0, 7, 5, 38, 13, 10, 12, 16, 5, 12, 16, 0)
s = 137: (0, 7, 4, 28, 7, 28, 12, 21, 2, 13, 16, 0)
s = 138: (0, 7, 6, 27, 16, 24, 20, 33, 2, 18, 10, 0)
s = 139: (0, 5, 6, 32, 8, 16, 22, 16, 4, 8, 19, 0)
s = 140: (0, 6, 4, 20, 11, 14, 16, 11, 2, 16, 13, 0)
s = 141: (0, 4, 5, 21, 14, 17, 18, 17, 3, 24, 17, 0)
s = 142: (0, 6, 8, 28, 9, 17, 10, 22, 4, 18, 18, 0)
s = 143: (0, 8, 8, 32, 9, 22, 13, 12, 3, 9, 14, 0)
s = 144: (0, 8, 6, 28, 11, 23, 13, 18, 4, 18, 14, 0)
s = 145: (0, 8, 5, 20, 12, 16, 12, 17, 5, 19, 13, 0)
s = 146: (0, 7, 4, 22, 10, 19, 21, 21, 4, 15, 15, 0)
s = 147: (0, 6, 6, 34, 8, 12, 17, 18, 4, 15, 11, 0)
s = 148: (0, 9, 4, 44, 11, 17, 20, 29, 3, 24, 17, 0)
s = 149: (0, 6, 4, 26, 16, 20, 14, 38, 4, 20, 11, 0)
s = 150: (0, 7, 7, 46, 9, 12, 17, 28, 2, 17, 10, 0)
s = 151: (0, 6, 4, 30, 6, 14, 10, 21, 3, 14, 12, 0)
s = 152: (0, 11, 6, 20, 16, 17, 16, 24, 3, 11, 18, 0)
s = 153: (0, 6, 4, 30, 8, 24, 14, 23, 2, 29, 15, 0)
s = 154: (0, 9, 5, 45, 17, 24, 14, 21, 4, 14, 12, 0)
s = 155: (0, 7, 6, 23, 10, 20, 10, 26, 3, 9, 16, 0)
s = 156: (0, 7, 4, 39, 7, 18, 19, 19, 3, 20, 17, 0)
s = 157: (0, 6, 5, 31, 7, 20, 14, 24, 4, 14, 12, 0)
s = 158: (0, 11, 7, 43, 13, 24, 15, 37, 3, 11, 12, 0)
s = 159: (0, 4, 5, 46, 6, 12, 26, 11, 3, 10, 21, 0)
s = 160: (0, 8, 4, 40, 13, 20, 19, 18, 3, 14, 12, 0)
s = 161: (0, 7, 5, 28, 12, 18, 15, 35, 3, 10, 11, 0)
s = 162: (0, 5, 5, 31, 7, 16, 11, 15, 3, 11, 12, 0)
s = 163: (0, 6, 5, 20, 17, 18, 18, 17, 5, 11, 18, 0)
s = 164: (0, 5, 4, 27, 9, 16, 15, 19, 4, 14, 12, 0)
s = 165: (0, 7, 4, 30, 14, 20, 21, 12, 5, 16, 15, 0)
s = 166: (0, 9, 4, 41, 9, 12, 21, 21, 4, 12, 13, 0)
s = 167: (0, 9, 7, 49, 11, 23, 16, 26, 3, 18, 19, 0)
s = 168: (0, 7, 7, 31, 16, 17, 15, 14, 5, 17, 18, 0)
s = 169: (0, 7, 7, 30, 12, 15, 13, 13, 3, 11, 25, 0)
s = 170: (0, 5, 5, 37, 7, 22, 25, 21, 5, 15, 20, 0)
s = 171: (0, 5, 5, 21, 13, 13, 18, 16, 3, 14, 14, 0)
s = 172: (0, 8, 7, 34, 7, 21, 23, 20, 2, 20, 27, 0)
s = 173: (0, 5, 7, 18, 15, 11, 12, 35, 4, 8, 15, 0)
s = 174: (0, 6, 5, 26, 11, 12, 14, 22, 5, 14, 16, 0)
s = 175: (0, 8, 5, 40, 14, 15, 14, 15, 3, 11, 10, 0)
s = 176: (0, 5, 7, 27, 7, 23, 18, 20, 4, 20, 15, 0)
s = 177: (0, 6, 5, 38, 7, 18, 21, 21, 2, 9, 11, 0)
s = 178: (0, 7, 5, 25, 7, 29, 14, 13, 2, 9, 19, 0)
s = 179: (0, 7, 5, 45, 7, 17, 14, 20, 3, 17, 22, 0)
s = 180: (0, 6, 7, 26, 11, 18, 15, 17, 2, 21, 19, 0)
s = 181: (0, 4, 5, 38, 11, 30, 17, 12, 3, 10, 14, 0)
s = 182: (0, 5, 6, 18, 10, 25, 12, 21, 4, 14, 16, 0)
s = 183: (0, 5, 7, 30, 13, 11, 15, 17, 3, 18, 11, 0)
s = 184: (0, 7, 6, 35, 13, 11, 16, 18, 2, 13, 12, 0)
s = 185: (0, 8, 6, 34, 14, 26, 12, 39, 3, 21, 14, 0)
s = 186: (0, 8, 6, 44, 7, 22, 21, 31, 5, 19, 13, 0)
s = 187: (0, 5, 8, 35, 14, 16, 21, 23, 4, 24, 15, 0)
s = 188: (0, 8, 6, 30, 11, 29, 11, 31, 4, 11, 10, 0)
s = 189: (0, 5, 4, 38, 13, 22, 12, 42, 5, 10, 15, 0)
s = 190: (0, 4, 9, 24, 7, 34, 12, 17, 3, 23, 12, 0)
s = 191: (0, 8, 6, 39, 6, 16, 16, 18, 3, 12, 12, 0)
s = 192: (0, 8, 6, 32, 10, 14, 28, 18, 3, 16, 12, 0)
s = 193: (0, 6, 6, 45, 9, 13, 16, 19, 4, 19, 14, 0)
s = 194: (0, 7, 8, 26, 10, 11, 16, 34, 2, 12, 16, 0)
s = 195: (0, 4, 6, 32, 11, 27, 17, 18, 4, 19, 22, 0)
s = 196: (0, 6, 9, 30, 12, 24, 17, 25, 5, 19, 10, 0)
s = 197: (0, 10, 5, 31, 6, 17, 24, 13, 3, 10, 14, 0)
s = 198: (0, 5, 6, 21, 9, 15, 11, 17, 3, 11, 19, 0)
s = 199: (0, 5, 5, 28, 11, 16, 13, 19, 2, 11, 18, 0)
s = 200: (0, 8, 5, 20, 8, 18, 19, 12, 4, 9, 12, 0)
------------------------------------------------------------------------
RESOURCE k = 2
s = 1: (0, 28, 9, 53, 22, 109, 39, 65, 11, 161, 35, 0)
s = 2: (0, 16, 10, 86, 38, 100, 56, 58, 21, 90, 46, 0)
s = 3: (0, 25, 13, 46, 24, 50, 40, 106, 12, 120, 28, 0)
s = 4: (0, 16, 9, 63, 24, 50, 53, 53, 19, 134, 49, 0)
s = 5: (0, 14, 20, 44, 24, 64, 40, 46, 20, 158, 61, 0)
s = 6: (0, 24, 13, 43, 39, 60, 51, 68, 18, 109, 73, 0)
s = 7: (0, 11, 20, 69, 19, 67, 41, 66, 19, 81, 28, 0)
s = 8: (0, 20, 17, 46, 37, 86, 53, 72, 11, 145, 60, 0)
s = 9: (0, 15, 21, 64, 20, 112, 44, 81, 14, 101, 25, 0)
s = 10: (0, 13, 11, 81, 40, 81, 33, 79, 14, 173, 66, 0)
s = 11: (0, 15, 10, 50, 18, 77, 72, 83, 15, 74, 28, 0)
s = 12: (0, 12, 15, 74, 19, 69, 39, 51, 14, 140, 44, 0)
s = 13: (0, 12, 10, 44, 19, 79, 37, 41, 18, 70, 48, 0)
s = 14: (0, 20, 10, 74, 22, 95, 30, 88, 20, 73, 31, 0)
s = 15: (0, 14, 10, 68, 24, 79, 55, 85, 16, 83, 63, 0)
s = 16: (0, 15, 13, 44, 19, 61, 49, 88, 15, 108, 76, 0)
s = 17: (0, 10, 13, 39, 23, 99, 40, 45, 18, 120, 36, 0)
s = 18: (0, 12, 16, 77, 23, 86, 36, 96, 18, 83, 55, 0)
s = 19: (0, 14, 10, 63, 21, 71, 70, 53, 15, 151, 31, 0)
s = 20: (0, 19, 15, 53, 28, 92, 48, 60, 14, 141, 61, 0)
s = 21: (0, 15, 12, 59, 29, 98, 59, 42, 9, 104, 43, 0)
s = 22: (0, 17, 7, 77, 44, 71, 43, 48, 9, 97, 37, 0)
s = 23: (0, 20, 8, 69, 33, 76, 75, 93, 16, 94, 73, 0)
s = 24: (0, 15, 15, 51, 28, 61, 61, 54, 15, 100, 39, 0)
s = 25: (0, 13, 16, 33, 15, 129, 35, 57, 11, 145, 50, 0)
s = 26: (0, 20, 11, 66, 21, 99, 44, 46, 9, 169, 39, 0)
s = 27: (0, 17, 17, 65, 34, 52, 27, 71, 12, 78, 30, 0)
s = 28: (0, 20, 9, 70, 31, 110, 27, 60, 13, 185, 37, 0)
s = 29: (0, 19, 12, 42, 18, 96, 52, 74, 10, 90, 39, 0)
s = 30: (0, 29, 15, 54, 27, 81, 47, 35, 13, 104, 38, 0)
s = 31: (0, 14, 15, 55, 26, 102, 70, 64, 11, 157, 59, 0)
s = 32: (0, 11, 9, 91, 27, 96, 46, 49, 16, 164, 51, 0)
s = 33: (0, 18, 13, 45, 26, 90, 32, 91, 18, 178, 29, 0)
s = 34: (0, 17, 16, 52, 25, 92, 51, 53, 14, 72, 70, 0)
s = 35: (0, 11, 12, 61, 24, 51, 54, 58, 11, 107, 57, 0)
s = 36: (0, 16, 15, 111, 25, 86, 45, 48, 17, 148, 40, 0)
s = 37: (0, 15, 13, 109, 24, 86, 57, 64, 18, 180, 43, 0)
s = 38: (0, 20, 14, 68, 23, 80, 25, 37, 11, 100, 34, 0)
s = 39: (0, 17, 8, 89, 33, 80, 53, 35, 20, 204, 36, 0)
s = 40: (0, 21, 14, 51, 47, 75, 50, 95, 12, 97, 56, 0)
s = 41: (0, 14, 15, 48, 43, 114, 53, 49, 16, 121, 54, 0)
s = 42: (0, 16, 15, 35, 34, 57, 39, 43, 14, 153, 52, 0)
s = 43: (0, 17, 11, 45, 33, 109, 38, 100, 18, 157, 52, 0)
s = 44: (0, 22, 25, 61, 18, 71, 46, 77, 14, 102, 68, 0)
s = 45: (0, 12, 10, 65, 27, 52, 65, 76, 17, 120, 30, 0)
s = 46: (0, 13, 15, 73, 27, 43, 33, 84, 14, 107, 41, 0)
s = 47: (0, 13, 12, 50, 21, 80, 32, 51, 17, 164, 77, 0)
s = 48: (0, 18, 9, 50, 37, 63, 49, 77, 13, 83, 44, 0)
s = 49: (0, 14, 15, 73, 29, 99, 49, 73, 13, 81, 42, 0)
s = 50: (0, 10, 15, 69, 32, 69, 36, 103, 16, 94, 31, 0)
s = 51: (0, 18, 7, 57, 19, 98, 56, 39, 20, 91, 44, 0)
s = 52: (0, 22, 13, 66, 21, 93, 58, 78, 23, 141, 54, 0)
s = 53: (0, 14, 12, 54, 25, 83, 38, 82, 15, 74, 56, 0)
s = 54: (0, 13, 14, 74, 24, 59, 32, 89, 17, 113, 46, 0)
s = 55: (0, 12, 13, 45, 23, 101, 43, 83, 9, 154, 34, 0)
s = 56: (0, 18, 9, 52, 44, 60, 37, 79, 21, 172, 49, 0)
s = 57: (0, 19, 19, 48, 37, 112, 67, 44, 16, 83, 54, 0)
s = 58: (0, 12, 11, 100, 17, 70, 56, 89, 19, 195, 32, 0)
s = 59: (0, 9, 12, 40, 27, 71, 47, 72, 16, 112, 33, 0)
s = 60: (0, 10, 15, 53, 29, 44, 39, 63, 16, 119, 71, 0)
s = 61: (0, 17, 12, 62, 21, 85, 43, 67, 13, 134, 30, 0)
s = 62: (0, 18, 11, 46, 22, 72, 38, 47, 13, 110, 85, 0)
s = 63: (0, 14, 14, 41, 31, 87, 48, 84, 13, 75, 28, 0)
s = 64: (0, 16, 10, 62, 21, 60, 35, 84, 13, 97, 28, 0)
s = 65: (0, 18, 14, 60, 26, 70, 52, 51, 10, 134, 32, 0)
s = 66: (0, 23, 12, 53, 26, 62, 57, 60, 19, 108, 51, 0)
s = 67: (0, 12, 11, 95, 27, 53, 44, 57, 17, 99, 37, 0)
s = 68: (0, 21, 15, 62, 32, 87, 32, 45, 12, 150, 27, 0)
s = 69: (0, 15, 14, 62, 33, 59, 52, 61, 15, 64, 48, 0)
s = 70: (0, 16, 16, 48, 37, 120, 75, 47, 15, 149, 47, 0)
s = 71: (0, 11, 10, 53, 20, 67, 61, 65, 11, 145, 33, 0)
s = 72: (0, 12, 18, 57, 15, 115, 51, 52, 14, 125, 55, 0)
s = 73: (0, 14, 12, 77, 28, 104, 33, 63, 11, 152, 44, 0)
s = 74: (0, 14, 8, 57, 17, 109, 27, 91, 19, 154, 41, 0)
s = 75: (0, 14, 9, 68, 34, 52, 53, 50, 22, 184, 29, 0)
s = 76: (0, 14, 11, 52, 31, 67, 57, 58, 16, 134, 52, 0)
s = 77: (0, 13, 16, 68, 18, 92, 39, 53, 12, 110, 37, 0)
s = 78: (0, 12, 13, 59, 27, 75, 63, 60, 14, 117, 43, 0)
s = 79: (0, 21, 9, 44, 18, 75, 37, 74, 15, 103, 55, 0)
s = 80: (0, 18, 12, 95, 16, 82, 31, 61, 14, 175, 42, 0)
s = 81: (0, 20, 9, 47, 32, 65, 44, 55, 16, 126, 45, 0)
s = 82: (0, 17, 8, 86, 24, 99, 43, 57, 12, 70, 45, 0)
s = 83: (0, 15, 9, 80, 34, 79, 61, 56, 16, 89, 33, 0)
s = 84: (0, 11, 17, 58, 26, 72, 49, 37, 15, 136, 38, 0)
s = 85: (0, 23, 13, 73, 21, 124, 29, 84, 22, 155, 53, 0)
s = 86: (0, 28, 15, 90, 33, 75, 33, 36, 16, 93, 49, 0)
s = 87: (0, 14, 11, 68, 23, 96, 41, 46, 26, 66, 25, 0)
s = 88: (0, 14, 16, 47, 32, 81, 30, 58, 15, 76, 35, 0)
s = 89: (0, 20, 9, 52, 32, 118, 57, 85, 12, 177, 48, 0)
s = 90: (0, 13, 9, 69, 26, 94, 32, 57, 26, 117, 29, 0)
s = 91: (0, 17, 10, 82, 32, 50, 52, 51, 13, 130, 73, 0)
s = 92: (0, 13, 10, 62, 48, 54, 53, 41, 13, 85, 41, 0)
s = 93: (0, 13, 11, 47, 15, 69, 33, 57, 16, 157, 48, 0)
s = 94: (0, 24, 16, 67, 22, 67, 35, 79, 16, 188, 45, 0)
s = 95: (0, 13, 10, 69, 18, 72, 36, 47, 13, 110, 58, 0)
s = 96: (0, 23, 14, 63, 24, 53, 44, 52, 14, 87, 29, 0)
s = 97: (0, 24, 10, 76, 27, 74, 36, 59, 14, 214, 57, 0)
s = 98: (0, 11, 13, 86, 25, 82, 55, 56, 14, 98, 35, 0)
s = 99: (0, 21, 23, 87, 36, 67, 44, 68, 11, 198, 43, 0)
s = 100: (0, 14, 8, 44, 31, 68, 49, 81, 15, 125, 55, 0)
s = 101: (0, 12, 15, 76, 33, 58, 46, 68, 17, 76, 33, 0)
s = 102: (0, 14, 8, 66, 32, 52, 47, 37, 11, 167, 28, 0)
s = 103: (0, 22, 9, 59, 17, 116, 53, 106, 16, 108, 53, 0)
s = 104: (0, 22, 12, 47, 22, 107, 34, 60, 15, 139, 42, 0)
s = 105: (0, 19, 8, 68, 14, 105, 52, 49, 14, 142, 66, 0)
s = 106: (0, 13, 9, 64, 30, 61, 65, 55, 18, 91, 32, 0)
s = 107: (0, 21, 18, 38, 16, 78, 27, 80, 20, 80, 40, 0)
s = 108: (0, 28, 13, 55, 21, 62, 48, 80, 12, 92, 59, 0)
s = 109: (0, 14, 12, 47, 23, 90, 41, 50, 19, 88, 30, 0)
s = 110: (0, 20, 14, 55, 22, 80, 42, 50, 14, 91, 83, 0)
s = 111: (0, 12, 15, 35, 19, 72, 44, 51, 14, 70, 37, 0)
s = 112: (0, 20, 12, 74, 25, 72, 38, 83, 11, 96, 45, 0)
s = 113: (0, 11, 8, 56, 29, 89, 70, 68, 23, 141, 27, 0)
s = 114: (0, 12, 11, 54, 22, 43, 47, 44, 20, 115, 49, 0)
s = 115: (0, 20, 18, 43, 17, 45, 64, 60, 19, 109, 70, 0)
s = 116: (0, 15, 16, 41, 36, 93, 34, 86, 9, 94, 56, 0)
s = 117: (0, 11, 17, 61, 36, 49, 35, 74, 11, 86, 48, 0)
s = 118: (0, 17, 13, 55, 29, 103, 79, 56, 14, 161, 38, 0)
s = 119: (0, 17, 12, 33, 15, 68, 24, 55, 13, 86, 57, 0)
s = 120: (0, 10, 11, 49, 19, 92, 43, 62, 11, 177, 48, 0)
s = 121: (0, 27, 11, 50, 33, 50, 73, 77, 19, 82, 38, 0)
s = 122: (0, 18, 14, 41, 15, 77, 50, 101, 22, 100, 50, 0)
s = 123: (0, 17, 7, 75, 21, 123, 57, 83, 12, 196, 32, 0)
s = 124: (0, 18, 12, 42, 33, 81, 57, 47, 11, 75, 63, 0)
s = 125: (0, 19, 9, 44, 21, 56, 55, 81, 20, 134, 61, 0)
s = 126: (0, 10, 16, 48, 38, 48, 39, 69, 14, 68, 53, 0)
s = 127: (0, 12, 23, 41, 34, 53, 40, 48, 12, 184, 38, 0)
s = 128: (0, 13, 15, 46, 20, 115, 53, 85, 14, 85, 39, 0)
s = 129: (0, 10, 9, 36, 22, 63, 44, 97, 20, 105, 57, 0)
s = 130: (0, 16, 14, 57, 24, 116, 47, 34, 17, 173, 66, 0)
s = 131: (0, 20, 12, 68, 22, 72, 32, 72, 15, 161, 36, 0)
s = 132: (0, 13, 11, 46, 20, 63, 72, 53, 13, 72, 29, 0)
s = 133: (0, 23, 14, 98, 21, 56, 30, 99, 19, 134, 39, 0)
s = 134: (0, 16, 17, 48, 33, 76, 25, 39, 16, 167, 60, 0)
s = 135: (0, 18, 19, 71, 23, 100, 25, 73, 21, 144, 49, 0)
s = 136: (0, 17, 12, 70, 34, 43, 36, 48, 23, 102, 47, 0)
s = 137: (0, 18, 10, 52, 18, 121, 36, 62, 10, 105, 46, 0)
s = 138: (0, 19, 14, 51, 40, 103, 58, 97, 10, 147, 28, 0)
s = 139: (0, 12, 13, 60, 20, 69, 64, 46, 16, 63, 56, 0)
s = 140: (0, 15, 8, 38, 27, 58, 47, 33, 10, 133, 39, 0)
s = 141: (0, 11, 11, 39, 35, 72, 54, 51, 13, 203, 50, 0)
s = 142: (0, 14, 17, 52, 22, 74, 30, 65, 18, 148, 52, 0)
s = 143: (0, 21, 18, 60, 22, 93, 38, 34, 13, 74, 40, 0)
s = 144: (0, 20, 13, 52, 28, 99, 37, 53, 20, 146, 41, 0)
s = 145: (0, 19, 11, 38, 31, 66, 35, 50, 24, 155, 37, 0)
s = 146: (0, 18, 9, 41, 25, 82, 61, 63, 18, 122, 45, 0)
s = 147: (0, 15, 14, 63, 20, 51, 49, 53, 20, 127, 32, 0)
s = 148: (0, 22, 9, 81, 28, 73, 58, 85, 13, 200, 50, 0)
s = 149: (0, 16, 10, 49, 40, 86, 40, 114, 16, 170, 33, 0)
s = 150: (0, 18, 16, 85, 23, 52, 50, 83, 10, 140, 30, 0)
s = 151: (0, 16, 10, 57, 15, 61, 29, 61, 14, 114, 35, 0)
s = 152: (0, 27, 13, 37, 40, 73, 46, 72, 12, 92, 54, 0)
s = 153: (0, 15, 8, 57, 20, 101, 40, 67, 10, 245, 43, 0)
s = 154: (0, 22, 11, 84, 44, 101, 40, 61, 20, 115, 34, 0)
s = 155: (0, 17, 14, 42, 25, 85, 30, 77, 15, 75, 47, 0)
s = 156: (0, 18, 10, 72, 17, 75, 55, 56, 11, 163, 49, 0)
s = 157: (0, 16, 11, 58, 17, 85, 41, 71, 17, 113, 35, 0)
s = 158: (0, 27, 15, 79, 32, 103, 43, 109, 15, 86, 34, 0)
s = 159: (0, 11, 11, 87, 16, 51, 76, 33, 15, 82, 63, 0)
s = 160: (0, 20, 9, 75, 34, 87, 56, 54, 13, 113, 34, 0)
s = 161: (0, 17, 10, 53, 29, 78, 44, 105, 13, 84, 33, 0)
s = 162: (0, 12, 10, 59, 17, 68, 33, 45, 15, 94, 34, 0)
s = 163: (0, 14, 10, 37, 44, 76, 53, 49, 22, 88, 53, 0)
s = 164: (0, 13, 9, 51, 22, 66, 44, 56, 18, 112, 35, 0)
s = 165: (0, 19, 8, 57, 34, 84, 61, 35, 21, 131, 43, 0)
s = 166: (0, 23, 10, 76, 22, 49, 61, 63, 16, 97, 38, 0)
s = 167: (0, 22, 15, 92, 27, 98, 47, 77, 12, 147, 56, 0)
s = 168: (0, 17, 17, 58, 41, 73, 43, 42, 22, 141, 53, 0)
s = 169: (0, 18, 16, 56, 31, 64, 38, 38, 15, 87, 75, 0)
s = 170: (0, 13, 12, 69, 18, 95, 74, 62, 22, 120, 59, 0)
s = 171: (0, 13, 11, 39, 32, 57, 52, 48, 15, 118, 42, 0)
s = 172: (0, 20, 16, 63, 16, 90, 69, 59, 9, 167, 80, 0)
s = 173: (0, 12, 15, 34, 38, 47, 36, 103, 17, 66, 44, 0)
s = 174: (0, 14, 10, 48, 27, 50, 40, 66, 21, 117, 46, 0)
s = 175: (0, 20, 10, 75, 34, 62, 41, 45, 12, 92, 29, 0)
s = 176: (0, 12, 17, 50, 18, 100, 54, 59, 19, 167, 45, 0)
s = 177: (0, 15, 12, 71, 18, 78, 61, 61, 10, 73, 32, 0)
s = 178: (0, 18, 10, 47, 18, 122, 42, 39, 9, 74, 55, 0)
s = 179: (0, 19, 10, 84, 16, 71, 41, 60, 11, 138, 65, 0)
s = 180: (0, 14, 16, 48, 29, 75, 45, 50, 10, 176, 57, 0)
s = 181: (0, 11, 12, 70, 29, 129, 49, 35, 14, 81, 40, 0)
s = 182: (0, 13, 13, 34, 24, 108, 34, 62, 16, 115, 46, 0)
s = 183: (0, 11, 16, 57, 32, 48, 44, 50, 14, 149, 32, 0)
s = 184: (0, 19, 14, 65, 34, 48, 46, 53, 10, 105, 36, 0)
s = 185: (0, 22, 14, 63, 37, 109, 35, 115, 15, 172, 42, 0)
s = 186: (0, 21, 14, 81, 18, 92, 63, 93, 24, 157, 38, 0)
s = 187: (0, 13, 19, 65, 34, 70, 63, 69, 20, 197, 45, 0)
s = 188: (0, 22, 14, 55, 28, 126, 33, 93, 19, 90, 30, 0)
s = 189: (0, 12, 10, 71, 32, 93, 36, 124, 24, 84, 44, 0)
s = 190: (0, 10, 21, 44, 17, 146, 35, 50, 15, 188, 34, 0)
s = 191: (0, 20, 15, 73, 16, 69, 46, 54, 13, 99, 36, 0)
s = 192: (0, 21, 14, 60, 25, 57, 84, 53, 14, 136, 35, 0)
s = 193: (0, 16, 13, 84, 23, 53, 46, 56, 19, 161, 40, 0)
s = 194: (0, 17, 17, 48, 26, 46, 46, 102, 8, 99, 47, 0)
s = 195: (0, 11, 13, 60, 27, 115, 50, 53, 16, 159, 66, 0)
s = 196: (0, 16, 22, 57, 30, 100, 50, 73, 23, 162, 30, 0)
s = 197: (0, 26, 12, 57, 15, 72, 71, 38, 14, 80, 41, 0)
s = 198: (0, 13, 13, 40, 24, 65, 32, 51, 12, 87, 56, 0)
s = 199: (0, 12, 12, 52, 29, 67, 39, 56, 10, 91, 52, 0)
s = 200: (0, 20, 11, 37, 21, 78, 55, 34, 17, 75, 35, 0)
************************************************************************
ES/LS-VALUES:
jobnr.   ES(i)    LS(i)
------------------------------------------------------------------------
  0        0        0
  1        0       62
  2        0       66
  3        0       52
  4        7       60
  5       10       64
  6       21       76
  7        7       68
  8       26       82
  9        7       69
 10       10       78
 11       28       84
************************************************************************
BIG-M-VALUES:
M1 = 57, M2 = 275
************************************************************************
